language Essence 1.3

letting colouring be function(0 --> 14, 1 --> 1, 2 --> 3, 3 --> 15, 4 --> 0, 5 --> 16, 6 --> 2, 7 --> 13, 8 --> 6)
letting edgeID be
        function(0 --> 13, 1 --> 2, 2 --> 12, 3 --> 15, 4 --> 16, 5 --> 14, 6 --> 11, 7 --> 1, 8 --> 8, 9 --> 5,
                 10 --> 3, 11 --> 9, 12 --> 6, 13 --> 10, 14 --> 4, 15 --> 7)
